; benchmark generated from python API
(set-info :status unknown)
(declare-fun x_days () Int)
(assert
 (>= x_days (- 36584)))
(assert
 (<= x_days 36829))
(assert
 (>= x_days 8341))
(assert
 (<= x_days 8705))
(assert
 (let (($x29 (or (and (= (mod 2000 4) 0) (and (distinct (mod 2000 100) 0) true)) (= (mod 2000 400) 0))))
(let ((?x36 (ite (= 3 2) (ite $x29 31 31) (ite (= 3 1) (ite $x29 0 0) 0))))
(let ((?x40 (ite $x29 60 59)))
(let ((?x41 (ite (= 3 3) ?x40 ?x36)))
(let ((?x46 (ite (= 3 4) (ite $x29 91 90) ?x41)))
(let ((?x52 (ite (= 3 5) (ite $x29 121 120) ?x46)))
(let ((?x58 (ite (= 3 6) (ite $x29 152 151) ?x52)))
(let ((?x64 (ite (= 3 7) (ite $x29 182 181) ?x58)))
(let ((?x70 (ite (= 3 8) (ite $x29 213 212) ?x64)))
(let ((?x76 (ite (= 3 9) (ite $x29 244 243) ?x70)))
(let ((?x82 (ite (= 3 10) (ite $x29 274 273) ?x76)))
(let ((?x88 (ite (= 3 11) (ite $x29 305 304) ?x82)))
(let ((?x16 (- (+ (* 365 (- 2000 1)) (div (- 2000 1) 4)) (div (- 2000 1) 100))))
(let ((?x95 (+ (+ ?x16 (div (- 2000 1) 400)) (ite (= 3 12) (ite $x29 335 334) ?x88))))
(let ((?x97 (+ ?x95 (- 1 1))))
(let ((?x145 (+ x_days ?x97)))
(let ((?x483 (mod ?x145 146097)))
(let ((?x634 (div ?x483 36524)))
(let ((?x897 (ite (<= 4 ?x634) 3 ?x634)))
(let ((?x735 (- ?x483 (* ?x897 36524))))
(let ((?x595 (mod ?x735 1461)))
(let ((?x957 (div ?x595 365)))
(let ((?x809 (ite (<= 4 ?x957) 3 ?x957)))
(let ((?x3170 (+ (+ (* (div ?x145 146097) 400) (* ?x897 100)) (* (div ?x735 1461) 4))))
(let ((?x525 (+ (+ ?x3170 ?x809) 1)))
(let (($x761 (or (and (= (mod ?x525 4) 0) (and (distinct (mod ?x525 100) 0) true)) (= (mod ?x525 400) 0))))
(let ((?x326 (- ?x595 (* ?x809 365))))
(let ((?x550 (ite $x761 31 31)))
(let (($x3375 (>= ?x326 ?x550)))
(let ((?x768 (ite $x3375 (+ (- ?x326 ?x550) 1) (+ (- ?x326 (ite $x761 0 0)) 1))))
(let ((?x340 (ite $x761 60 59)))
(let (($x315 (>= ?x326 ?x340)))
(let ((?x576 (ite $x761 91 90)))
(let (($x3931 (>= ?x326 ?x576)))
(let ((?x200 (ite $x3931 (+ (- ?x326 ?x576) 1) (ite $x315 (+ (- ?x326 ?x340) 1) ?x768))))
(let ((?x2897 (ite $x761 121 120)))
(let (($x150 (>= ?x326 ?x2897)))
(let ((?x3127 (ite $x761 152 151)))
(let (($x1800 (>= ?x326 ?x3127)))
(let ((?x2095 (ite $x1800 (+ (- ?x326 ?x3127) 1) (ite $x150 (+ (- ?x326 ?x2897) 1) ?x200))))
(let ((?x600 (ite $x761 182 181)))
(let (($x632 (>= ?x326 ?x600)))
(let ((?x146 (ite $x761 213 212)))
(let (($x689 (>= ?x326 ?x146)))
(let ((?x378 (ite $x689 (+ (- ?x326 ?x146) 1) (ite $x632 (+ (- ?x326 ?x600) 1) ?x2095))))
(let ((?x560 (ite $x761 244 243)))
(let (($x395 (>= ?x326 ?x560)))
(let ((?x787 (ite $x761 274 273)))
(let (($x3358 (>= ?x326 ?x787)))
(let ((?x844 (ite $x3358 (+ (- ?x326 ?x787) 1) (ite $x395 (+ (- ?x326 ?x560) 1) ?x378))))
(let ((?x922 (ite $x761 305 304)))
(let (($x164 (>= ?x326 ?x922)))
(let ((?x296 (ite $x761 335 334)))
(let (($x336 (>= ?x326 ?x296)))
(let ((?x116 (ite $x336 (+ (- ?x326 ?x296) 1) (ite $x164 (+ (- ?x326 ?x922) 1) ?x844))))
(let ((?x3309 (ite $x150 5 (ite $x3931 4 (ite $x315 3 (ite $x3375 2 1))))))
(let ((?x309 (ite $x395 9 (ite $x689 8 (ite $x632 7 (ite $x1800 6 ?x3309))))))
(let ((?x300 (ite $x336 12 (ite $x164 11 (ite $x3358 10 ?x309)))))
(let ((?x430 (- (+ ?x300 0) 1)))
(let ((?x501 (+ (mod ?x430 12) 1)))
(let ((?x447 (ite (or (= ?x501 4) (= ?x501 6) (= ?x501 9) (= ?x501 11)) 30 31)))
(let (($x215 (and (= (mod (+ (+ ?x525 0) (div ?x430 12)) 4) 0) (and (distinct (mod (+ (+ ?x525 0) (div ?x430 12)) 100) 0) true))))
(let (($x255 (or $x215 (= (mod (+ (+ ?x525 0) (div ?x430 12)) 400) 0))))
(let ((?x437 (ite (= ?x501 2) (ite $x255 29 28) ?x447)))
(let (($x282 (> 1 ?x116)))
(let ((?x1155 (ite (= 2 ?x501) (ite $x255 31 31) (ite (= 1 ?x501) (ite $x255 0 0) 0))))
(let ((?x583 (ite (= 4 ?x501) (ite $x255 91 90) (ite (= 3 ?x501) (ite $x255 60 59) ?x1155))))
(let ((?x541 (ite (= 6 ?x501) (ite $x255 152 151) (ite (= 5 ?x501) (ite $x255 121 120) ?x583))))
(let ((?x439 (ite (= 8 ?x501) (ite $x255 213 212) (ite (= 7 ?x501) (ite $x255 182 181) ?x541))))
(let ((?x333 (ite (= 10 ?x501) (ite $x255 274 273) (ite (= 9 ?x501) (ite $x255 244 243) ?x439))))
(let ((?x783 (ite (= 12 ?x501) (ite $x255 335 334) (ite (= 11 ?x501) (ite $x255 305 304) ?x333))))
(let ((?x3941 (+ (* 365 (- (+ (+ ?x525 0) (div ?x430 12)) 1)) (div (- (+ (+ ?x525 0) (div ?x430 12)) 1) 4))))
(let ((?x363 (+ (- ?x3941 (div (- (+ (+ ?x525 0) (div ?x430 12)) 1) 100)) (div (- (+ (+ ?x525 0) (div ?x430 12)) 1) 400))))
(let ((?x598 (+ (+ ?x363 ?x783) (- (ite $x282 1 (ite (> ?x116 ?x437) ?x437 ?x116)) 1))))
(let (($x1013 (or (= (+ (mod (- (+ ?x300 2) 1) 12) 1) 4) (= (+ (mod (- (+ ?x300 2) 1) 12) 1) 6) (= (+ (mod (- (+ ?x300 2) 1) 12) 1) 9) (= (+ (mod (- (+ ?x300 2) 1) 12) 1) 11))))
(let (($x764 (= (mod (+ (+ ?x525 0) (div (- (+ ?x300 2) 1) 12)) 400) 0)))
(let (($x675 (and (distinct (mod (+ (+ ?x525 0) (div (- (+ ?x300 2) 1) 12)) 100) 0) true)))
(let (($x797 (= (mod (+ (+ ?x525 0) (div (- (+ ?x300 2) 1) 12)) 4) 0)))
(let (($x493 (or (and $x797 $x675) $x764)))
(let ((?x244 (ite (= (+ (mod (- (+ ?x300 2) 1) 12) 1) 2) (ite $x493 29 28) (ite $x1013 30 31))))
(let ((?x804 (ite (= 1 (+ (mod (- (+ ?x300 2) 1) 12) 1)) (ite $x493 0 0) 0)))
(let ((?x3126 (ite (= 2 (+ (mod (- (+ ?x300 2) 1) 12) 1)) (ite $x493 31 31) ?x804)))
(let ((?x3334 (ite (= 3 (+ (mod (- (+ ?x300 2) 1) 12) 1)) (ite $x493 60 59) ?x3126)))
(let ((?x3929 (ite (= 4 (+ (mod (- (+ ?x300 2) 1) 12) 1)) (ite $x493 91 90) ?x3334)))
(let ((?x140 (ite (= 5 (+ (mod (- (+ ?x300 2) 1) 12) 1)) (ite $x493 121 120) ?x3929)))
(let ((?x575 (ite (= 6 (+ (mod (- (+ ?x300 2) 1) 12) 1)) (ite $x493 152 151) ?x140)))
(let ((?x308 (ite (= 7 (+ (mod (- (+ ?x300 2) 1) 12) 1)) (ite $x493 182 181) ?x575)))
(let ((?x3942 (ite (= 8 (+ (mod (- (+ ?x300 2) 1) 12) 1)) (ite $x493 213 212) ?x308)))
(let ((?x452 (ite (= 9 (+ (mod (- (+ ?x300 2) 1) 12) 1)) (ite $x493 244 243) ?x3942)))
(let ((?x465 (ite (= 10 (+ (mod (- (+ ?x300 2) 1) 12) 1)) (ite $x493 274 273) ?x452)))
(let ((?x310 (ite (= 11 (+ (mod (- (+ ?x300 2) 1) 12) 1)) (ite $x493 305 304) ?x465)))
(let ((?x578 (ite (= 12 (+ (mod (- (+ ?x300 2) 1) 12) 1)) (ite $x493 335 334) ?x310)))
(let ((?x124 (+ ?x525 0)))
(let ((?x780 (+ ?x124 (div (- (+ ?x300 2) 1) 12))))
(let ((?x278 (- ?x780 1)))
(let ((?x180 (+ (- (+ (* 365 ?x278) (div ?x278 4)) (div ?x278 100)) (div ?x278 400))))
(let ((?x474 (+ (+ ?x180 ?x578) (- (ite $x282 1 (ite (> ?x116 ?x244) ?x244 ?x116)) 1))))
(= (- (+ ?x474 0) ?x97) (- (+ ?x598 61) ?x97))))))))))))))))))))))))))))))))))))))))))))))))))))))))))))))))))))))))))))))))))))))))))))))))))))
(check-sat)
